100
120
100
100
100
99
99
98
96
96
96
95
95
92
91
91
91
91
91
88
87
87
87
87
85
85
84
84
82
81
81
80
79
78
77
75
74
74
74
74
72
71
70
70
70
70
70
69
69
68
68
67
66
66
65
65
64
63
63
62
61
61
60
58
58
56
55
54
54
54
53
53
53
53
52
51
47
47
45
45
44
44
43
43
42
41
41
39
38
37
36
36
36
35
35
34
34
33
33
32
32
30
